(set-logic ALL)
(set-option :produce-models true)
(declare-sort BoundSet 0)
(declare-sort UnboundSet 0)
(set-option :finite-model-find true)
(declare-fun CausesIncreaseInPrecipitation (BoundSet) Bool)
(declare-fun CausesIncreaseInSoilMoisture (BoundSet) Bool)
(declare-fun CreatesSaferWorld (BoundSet) Bool)
(declare-fun CreatesPeacefulWorld (BoundSet) Bool)
(assert (not (=> (exists ((a BoundSet)) (and (CausesIncreaseInPrecipitation a) (CausesIncreaseInSoilMoisture a))) (exists ((b BoundSet)) (and (CreatesSaferWorld b) (CreatesPeacefulWorld b))))))
(check-sat)
(get-model)